(set-logic QF_LRA)
(declare-fun T1 () Real )
(declare-fun T2 () Real )
(declare-fun T3 () Real )
(declare-fun T4 () Real )
(declare-fun T5 () Real )
(declare-fun T6 () Real )
(declare-fun Z () Real )
(assert ( and 
(or ( <= ( + T1 74 ) T2 ) ( <= ( + T2 10 ) T1 ) )
(or ( <= ( + T1 120 )  ( + T2 10 ) ) ( <= ( + T2 99 )( + T1 74 ) ) )
(or ( <= ( + T1 145 )  ( + T2 99 ) ) ( <= ( + T2 191 )( + T1 120 ) ) )
(or ( <= ( + T1 172 )  ( + T2 191 ) ) ( <= ( + T2 228 )( + T1 145 ) ) )
(or ( <= ( + T1 74 ) T3 ) ( <= ( + T3 97 ) T1 ) )
(or ( <= ( + T1 120 )  ( + T3 97 ) ) ( <= ( + T3 138 )( + T1 74 ) ) )
(or ( <= ( + T1 145 )  ( + T3 138 ) ) ( <= ( + T3 232 )( + T1 120 ) ) )
(or ( <= ( + T1 172 )  ( + T3 232 ) ) ( <= ( + T3 326 )( + T1 145 ) ) )
(or ( <= ( + T1 74 ) T4 ) ( <= ( + T4 42 ) T1 ) )
(or ( <= ( + T1 120 )  ( + T4 42 ) ) ( <= ( + T4 116 )( + T1 74 ) ) )
(or ( <= ( + T1 145 )  ( + T4 116 ) ) ( <= ( + T4 162 )( + T1 120 ) ) )
(or ( <= ( + T1 172 )  ( + T4 162 ) ) ( <= ( + T4 182 )( + T1 145 ) ) )
(or ( <= ( + T1 74 ) T5 ) ( <= ( + T5 81 ) T1 ) )
(or ( <= ( + T1 120 )  ( + T5 81 ) ) ( <= ( + T5 124 )( + T1 74 ) ) )
(or ( <= ( + T1 145 )  ( + T5 124 ) ) ( <= ( + T5 138 )( + T1 120 ) ) )
(or ( <= ( + T1 172 )  ( + T5 138 ) ) ( <= ( + T5 193 )( + T1 145 ) ) )
(or ( <= ( + T1 74 ) T6 ) ( <= ( + T6 78 ) T1 ) )
(or ( <= ( + T1 120 )  ( + T6 78 ) ) ( <= ( + T6 105 )( + T1 74 ) ) )
(or ( <= ( + T1 145 )  ( + T6 105 ) ) ( <= ( + T6 170 )( + T1 120 ) ) )
(or ( <= ( + T1 172 )  ( + T6 170 ) ) ( <= ( + T6 183 )( + T1 145 ) ) )
(or ( <= ( + T2 10 ) T3 ) ( <= ( + T3 97 ) T2 ) )
(or ( <= ( + T2 99 )  ( + T3 97 ) ) ( <= ( + T3 138 )( + T2 10 ) ) )
(or ( <= ( + T2 191 )  ( + T3 138 ) ) ( <= ( + T3 232 )( + T2 99 ) ) )
(or ( <= ( + T2 228 )  ( + T3 232 ) ) ( <= ( + T3 326 )( + T2 191 ) ) )
(or ( <= ( + T2 10 ) T4 ) ( <= ( + T4 42 ) T2 ) )
(or ( <= ( + T2 99 )  ( + T4 42 ) ) ( <= ( + T4 116 )( + T2 10 ) ) )
(or ( <= ( + T2 191 )  ( + T4 116 ) ) ( <= ( + T4 162 )( + T2 99 ) ) )
(or ( <= ( + T2 228 )  ( + T4 162 ) ) ( <= ( + T4 182 )( + T2 191 ) ) )
(or ( <= ( + T2 10 ) T5 ) ( <= ( + T5 81 ) T2 ) )
(or ( <= ( + T2 99 )  ( + T5 81 ) ) ( <= ( + T5 124 )( + T2 10 ) ) )
(or ( <= ( + T2 191 )  ( + T5 124 ) ) ( <= ( + T5 138 )( + T2 99 ) ) )
(or ( <= ( + T2 228 )  ( + T5 138 ) ) ( <= ( + T5 193 )( + T2 191 ) ) )
(or ( <= ( + T2 10 ) T6 ) ( <= ( + T6 78 ) T2 ) )
(or ( <= ( + T2 99 )  ( + T6 78 ) ) ( <= ( + T6 105 )( + T2 10 ) ) )
(or ( <= ( + T2 191 )  ( + T6 105 ) ) ( <= ( + T6 170 )( + T2 99 ) ) )
(or ( <= ( + T2 228 )  ( + T6 170 ) ) ( <= ( + T6 183 )( + T2 191 ) ) )
(or ( <= ( + T3 97 ) T4 ) ( <= ( + T4 42 ) T3 ) )
(or ( <= ( + T3 138 )  ( + T4 42 ) ) ( <= ( + T4 116 )( + T3 97 ) ) )
(or ( <= ( + T3 232 )  ( + T4 116 ) ) ( <= ( + T4 162 )( + T3 138 ) ) )
(or ( <= ( + T3 326 )  ( + T4 162 ) ) ( <= ( + T4 182 )( + T3 232 ) ) )
(or ( <= ( + T3 97 ) T5 ) ( <= ( + T5 81 ) T3 ) )
(or ( <= ( + T3 138 )  ( + T5 81 ) ) ( <= ( + T5 124 )( + T3 97 ) ) )
(or ( <= ( + T3 232 )  ( + T5 124 ) ) ( <= ( + T5 138 )( + T3 138 ) ) )
(or ( <= ( + T3 326 )  ( + T5 138 ) ) ( <= ( + T5 193 )( + T3 232 ) ) )
(or ( <= ( + T3 97 ) T6 ) ( <= ( + T6 78 ) T3 ) )
(or ( <= ( + T3 138 )  ( + T6 78 ) ) ( <= ( + T6 105 )( + T3 97 ) ) )
(or ( <= ( + T3 232 )  ( + T6 105 ) ) ( <= ( + T6 170 )( + T3 138 ) ) )
(or ( <= ( + T3 326 )  ( + T6 170 ) ) ( <= ( + T6 183 )( + T3 232 ) ) )
(or ( <= ( + T4 42 ) T5 ) ( <= ( + T5 81 ) T4 ) )
(or ( <= ( + T4 116 )  ( + T5 81 ) ) ( <= ( + T5 124 )( + T4 42 ) ) )
(or ( <= ( + T4 162 )  ( + T5 124 ) ) ( <= ( + T5 138 )( + T4 116 ) ) )
(or ( <= ( + T4 182 )  ( + T5 138 ) ) ( <= ( + T5 193 )( + T4 162 ) ) )
(or ( <= ( + T4 42 ) T6 ) ( <= ( + T6 78 ) T4 ) )
(or ( <= ( + T4 116 )  ( + T6 78 ) ) ( <= ( + T6 105 )( + T4 42 ) ) )
(or ( <= ( + T4 162 )  ( + T6 105 ) ) ( <= ( + T6 170 )( + T4 116 ) ) )
(or ( <= ( + T4 182 )  ( + T6 170 ) ) ( <= ( + T6 183 )( + T4 162 ) ) )
(or ( <= ( + T5 81 ) T6 ) ( <= ( + T6 78 ) T5 ) )
(or ( <= ( + T5 124 )  ( + T6 78 ) ) ( <= ( + T6 105 )( + T5 81 ) ) )
(or ( <= ( + T5 138 )  ( + T6 105 ) ) ( <= ( + T6 170 )( + T5 124 ) ) )
(or ( <= ( + T5 193 )  ( + T6 170 ) ) ( <= ( + T6 183 )( + T5 138 ) ) )
( <= ( + T1 172 ) Z)
( <= ( + T2 228 ) Z)
( <= ( + T3 326 ) Z)
( <= ( + T4 182 ) Z)
( <= ( + T5 193 ) Z)
( <= ( + T6 183 ) Z)
( >= T1 0 )
( >= T2 0 )
( >= T3 0 )
( >= T4 0 )
( >= T5 0 )
( >= T6 0 )
) )
(minimize Z)
(check-sat)